db/data/233132941022042209181072616874509918720.z3.out
-------------------
2500.130486891
